p cnf 577 1207
-1 2 0
3 2 0
1 -3 -2 0
4 -2 0
-4 2 0
-5 6 0
7 6 0
5 -7 -6 0
8 -6 0
-8 6 0
-9 10 0
11 10 0
9 -11 -10 0
12 -10 0
-12 10 0
-13 14 0
15 14 0
13 -15 -14 0
16 -14 0
-16 14 0
-17 18 0
19 18 0
17 -19 -18 0
20 -18 0
-20 18 0
-21 22 0
23 22 0
21 -23 -22 0
24 -22 0
-24 22 0
-25 26 0
27 26 0
25 -27 -26 0
28 -26 0
-28 26 0
-29 30 0
31 30 0
29 -31 -30 0
32 -30 0
-32 30 0
-33 34 0
35 34 0
33 -35 -34 0
36 -34 0
-36 34 0
-37 38 0
39 38 0
37 -39 -38 0
40 -38 0
-40 38 0
-41 42 0
43 42 0
41 -43 -42 0
44 -42 0
-44 42 0
-45 46 0
47 46 0
45 -47 -46 0
48 -46 0
-48 46 0
-49 50 0
51 50 0
49 -51 -50 0
52 -50 0
-52 50 0
-53 54 0
55 54 0
53 -55 -54 0
56 -54 0
-56 54 0
-57 58 0
59 58 0
57 -59 -58 0
60 -58 0
-60 58 0
-61 62 0
63 62 0
61 -63 -62 0
64 -62 0
-64 62 0
-65 66 0
67 66 0
65 -67 -66 0
68 -66 0
-68 66 0
-69 70 0
71 70 0
69 -71 -70 0
72 -70 0
-72 70 0
-73 74 0
75 74 0
73 -75 -74 0
76 -74 0
-76 74 0
-77 78 0
79 78 0
77 -79 -78 0
80 -78 0
-80 78 0
-81 82 0
83 82 0
81 -83 -82 0
84 -82 0
-84 82 0
-85 86 0
87 86 0
85 -87 -86 0
88 -86 0
-88 86 0
-89 90 0
91 90 0
89 -91 -90 0
92 -90 0
-92 90 0
-93 94 0
95 94 0
93 -95 -94 0
96 -94 0
-96 94 0
-97 98 0
99 98 0
97 -99 -98 0
100 -98 0
-100 98 0
-101 102 0
103 102 0
101 -103 -102 0
104 -102 0
-104 102 0
-105 106 0
107 106 0
105 -107 -106 0
108 -106 0
-108 106 0
-109 110 0
111 110 0
109 -111 -110 0
112 -110 0
-112 110 0
-113 114 0
115 114 0
113 -115 -114 0
116 -114 0
-116 114 0
-117 118 0
119 118 0
117 -119 -118 0
120 -118 0
-120 118 0
-121 122 0
123 122 0
121 -123 -122 0
124 -122 0
-124 122 0
-125 126 0
127 126 0
125 -127 -126 0
128 -126 0
-128 126 0
-129 130 0
131 130 0
129 -131 -130 0
132 -130 0
-132 130 0
-133 134 0
135 134 0
133 -135 -134 0
136 -134 0
-136 134 0
-137 138 0
139 138 0
137 -139 -138 0
140 -138 0
-140 138 0
-141 142 0
143 142 0
141 -143 -142 0
144 -142 0
-144 142 0
-145 146 0
147 146 0
145 -147 -146 0
148 -146 0
-148 146 0
-149 150 0
151 150 0
149 -151 -150 0
152 -150 0
-152 150 0
-153 154 0
155 154 0
153 -155 -154 0
156 -154 0
-156 154 0
-157 158 0
159 158 0
157 -159 -158 0
160 -158 0
-160 158 0
-161 162 0
163 162 0
161 -163 -162 0
164 -162 0
-164 162 0
-165 166 0
167 166 0
165 -167 -166 0
168 -166 0
-168 166 0
-169 170 0
171 170 0
169 -171 -170 0
172 -170 0
-172 170 0
-173 174 0
175 174 0
173 -175 -174 0
176 -174 0
-176 174 0
-177 178 0
179 178 0
177 -179 -178 0
180 -178 0
-180 178 0
-181 182 0
183 182 0
181 -183 -182 0
184 -182 0
-184 182 0
-185 186 0
187 186 0
185 -187 -186 0
188 -186 0
-188 186 0
-189 190 0
191 190 0
189 -191 -190 0
192 -190 0
-192 190 0
-193 194 0
195 194 0
193 -195 -194 0
196 -194 0
-196 194 0
-197 198 0
199 198 0
197 -199 -198 0
200 -198 0
-200 198 0
-201 202 0
203 202 0
201 -203 -202 0
204 -202 0
-204 202 0
-205 206 0
207 206 0
205 -207 -206 0
208 -206 0
-208 206 0
-209 210 0
211 210 0
209 -211 -210 0
212 -210 0
-212 210 0
-213 214 0
215 214 0
213 -215 -214 0
216 -214 0
-216 214 0
-217 218 0
219 218 0
217 -219 -218 0
220 -218 0
-220 218 0
-221 222 0
223 222 0
221 -223 -222 0
224 -222 0
-224 222 0
-225 226 0
227 226 0
225 -227 -226 0
228 -226 0
-228 226 0
-229 230 0
231 230 0
229 -231 -230 0
232 -230 0
-232 230 0
-233 234 0
235 234 0
233 -235 -234 0
236 -234 0
-236 234 0
-237 238 0
239 238 0
237 -239 -238 0
240 -238 0
-240 238 0
-241 242 0
243 242 0
241 -243 -242 0
244 -242 0
-244 242 0
-245 246 0
247 246 0
245 -247 -246 0
248 -246 0
-248 246 0
-249 250 0
251 250 0
249 -251 -250 0
252 -250 0
-252 250 0
-253 254 0
255 254 0
253 -255 -254 0
256 -254 0
-256 254 0
-257 258 0
259 258 0
257 -259 -258 0
260 -258 0
-260 258 0
-261 262 0
263 262 0
261 -263 -262 0
264 -262 0
-264 262 0
-265 266 0
267 266 0
265 -267 -266 0
268 -266 0
-268 266 0
-269 270 0
271 270 0
269 -271 -270 0
272 -270 0
-272 270 0
-273 274 0
275 274 0
273 -275 -274 0
276 -274 0
-276 274 0
-277 278 0
279 278 0
277 -279 -278 0
280 -278 0
-280 278 0
-281 282 0
283 282 0
281 -283 -282 0
284 -282 0
-284 282 0
-285 286 0
287 286 0
285 -287 -286 0
288 -286 0
-288 286 0
-289 290 0
291 290 0
289 -291 -290 0
292 -290 0
-292 290 0
-293 294 0
295 294 0
293 -295 -294 0
296 -294 0
-296 294 0
-297 298 0
299 298 0
297 -299 -298 0
300 -298 0
-300 298 0
-301 302 0
303 302 0
301 -303 -302 0
304 -302 0
-304 302 0
-305 306 0
307 306 0
305 -307 -306 0
308 -306 0
-308 306 0
-309 310 0
311 310 0
309 -311 -310 0
312 -310 0
-312 310 0
-313 314 0
315 314 0
313 -315 -314 0
316 -314 0
-316 314 0
-317 318 0
319 318 0
317 -319 -318 0
320 -318 0
-320 318 0
-321 322 0
323 322 0
321 -323 -322 0
324 -322 0
-324 322 0
-325 326 0
327 326 0
325 -327 -326 0
328 -326 0
-328 326 0
-329 330 0
-5 -331 330 0
5 329 -330 0
329 331 -330 0
1 -330 0
-1 330 0
-332 333 0
-334 -9 333 0
332 334 -333 0
9 332 -333 0
5 -333 0
-5 333 0
-335 336 0
-337 -13 336 0
335 337 -336 0
13 335 -336 0
9 -336 0
-9 336 0
-338 339 0
-17 -340 339 0
17 338 -339 0
338 340 -339 0
13 -339 0
-13 339 0
-341 342 0
-21 -343 342 0
21 341 -342 0
341 343 -342 0
17 -342 0
-17 342 0
-344 345 0
-346 -25 345 0
344 346 -345 0
25 344 -345 0
21 -345 0
-21 345 0
-347 348 0
-349 -341 348 0
-349 -344 -343 348 0
347 349 -348 0
341 347 349 -348 0
344 347 349 -348 0
341 344 347 -348 0
343 347 349 -348 0
341 343 347 -348 0
25 -348 0
-25 348 0
-350 351 0
-33 -352 351 0
33 350 -351 0
350 352 -351 0
29 -351 0
-29 351 0
-353 354 0
-355 -37 354 0
353 355 -354 0
37 353 -354 0
33 -354 0
-33 354 0
-356 357 0
-358 -41 357 0
356 358 -357 0
41 356 -357 0
37 -357 0
-37 357 0
-359 360 0
-361 -45 360 0
359 361 -360 0
45 359 -360 0
41 -360 0
-41 360 0
-362 363 0
-49 -364 363 0
49 362 -363 0
362 364 -363 0
45 -363 0
-45 363 0
-365 366 0
-356 -367 366 0
-358 -359 -367 366 0
-358 -361 -362 -367 366 0
356 358 365 -366 0
358 365 367 -366 0
356 358 359 365 -366 0
358 359 365 367 -366 0
356 358 365 367 -366 0
356 358 361 365 -366 0
358 361 365 367 -366 0
356 359 361 365 -366 0
359 361 365 367 -366 0
356 361 365 367 -366 0
361 365 367 -366 0
356 358 362 365 -366 0
358 362 365 367 -366 0
356 359 362 365 -366 0
359 362 365 367 -366 0
356 362 365 367 -366 0
362 365 367 -366 0
356 359 365 367 -366 0
359 365 367 -366 0
356 365 367 -366 0
365 367 -366 0
49 -366 0
-49 366 0
-368 369 0
-57 -370 369 0
57 368 -369 0
368 370 -369 0
53 -369 0
-53 369 0
-371 372 0
-373 -61 372 0
371 373 -372 0
61 371 -372 0
57 -372 0
-57 372 0
-374 375 0
-376 -65 375 0
374 376 -375 0
65 374 -375 0
61 -375 0
-61 375 0
-377 378 0
-69 -379 378 0
69 377 -378 0
377 379 -378 0
65 -378 0
-65 378 0
-380 381 0
-73 -382 381 0
73 380 -381 0
380 382 -381 0
69 -381 0
-69 381 0
-383 384 0
-374 -385 384 0
-376 -377 -385 384 0
-386 0
374 376 383 -384 0
376 383 385 -384 0
374 376 377 383 -384 0
376 377 383 385 -384 0
374 376 383 385 -384 0
374 376 380 383 -384 0
376 380 383 385 -384 0
374 377 380 383 -384 0
377 380 383 385 -384 0
374 380 383 385 -384 0
380 383 385 -384 0
374 376 379 383 -384 0
376 379 383 385 -384 0
374 377 379 383 -384 0
377 379 383 385 -384 0
374 379 383 385 -384 0
379 383 385 -384 0
374 377 383 385 -384 0
377 383 385 -384 0
374 383 385 -384 0
383 385 -384 0
73 -384 0
-73 384 0
-387 388 0
-81 -389 388 0
81 387 -388 0
387 389 -388 0
77 -388 0
-77 388 0
-390 391 0
-392 -85 391 0
390 392 -391 0
85 390 -391 0
81 -391 0
-81 391 0
-393 394 0
-395 -89 394 0
393 395 -394 0
89 393 -394 0
85 -394 0
-85 394 0
-396 397 0
-393 -398 397 0
393 396 -397 0
396 398 -397 0
89 -397 0
-89 397 0
-399 400 0
-97 -401 400 0
97 399 -400 0
399 401 -400 0
93 -400 0
-93 400 0
-402 403 0
-404 -101 403 0
402 404 -403 0
101 402 -403 0
97 -403 0
-97 403 0
101 -405 0
405 -101 0
-406 407 0
-408 -9 407 0
406 408 -407 0
9 406 -407 0
105 -407 0
-105 407 0
-409 410 0
-411 -113 410 0
409 411 -410 0
113 409 -410 0
109 -410 0
-109 410 0
-412 413 0
-414 -117 413 0
412 414 -413 0
117 412 -413 0
113 -413 0
-113 413 0
-415 416 0
-105 -417 416 0
105 415 -416 0
415 417 -416 0
117 -416 0
-117 416 0
-418 419 0
-420 -57 419 0
418 420 -419 0
57 418 -419 0
121 -419 0
-121 419 0
-421 422 0
-13 -423 422 0
13 421 -422 0
421 423 -422 0
125 -422 0
-125 422 0
-424 425 0
-133 -426 425 0
133 424 -425 0
424 426 -425 0
129 -425 0
-129 425 0
-427 428 0
-429 -137 428 0
427 429 -428 0
137 427 -428 0
133 -428 0
-133 428 0
430 -431 0
-141 -432 430 0
141 431 -430 0
431 432 -430 0
137 -430 0
-137 430 0
-433 434 0
-145 -435 434 0
145 433 -434 0
433 435 -434 0
141 -434 0
-141 434 0
-436 437 0
-438 -149 437 0
436 438 -437 0
149 436 -437 0
145 -437 0
-145 437 0
439 -440 0
-441 -433 439 0
-441 -436 -435 439 0
440 441 -439 0
433 440 441 -439 0
436 440 441 -439 0
433 436 440 -439 0
435 440 441 -439 0
433 435 440 -439 0
149 -439 0
-149 439 0
-442 443 0
-157 -444 443 0
157 442 -443 0
442 444 -443 0
153 -443 0
-153 443 0
-445 446 0
-447 -161 446 0
445 447 -446 0
161 445 -446 0
157 -446 0
-157 446 0
-448 449 0
-165 -450 449 0
165 448 -449 0
448 450 -449 0
161 -449 0
-161 449 0
-451 452 0
-453 -169 452 0
451 453 -452 0
169 451 -452 0
165 -452 0
-165 452 0
-454 455 0
-173 -456 455 0
173 454 -455 0
454 456 -455 0
169 -455 0
-169 455 0
457 -458 0
-448 -459 457 0
-451 -450 -459 457 0
-460 0
448 451 453 458 -457 0
451 453 458 459 -457 0
448 450 453 458 -457 0
450 453 458 459 -457 0
448 453 458 459 -457 0
453 458 459 -457 0
448 451 454 458 -457 0
451 454 458 459 -457 0
448 450 454 458 -457 0
450 454 458 459 -457 0
448 454 458 459 -457 0
454 458 459 -457 0
448 450 451 458 -457 0
450 451 458 459 -457 0
448 450 458 -457 0
450 458 459 -457 0
448 450 458 459 -457 0
448 451 458 459 -457 0
451 458 459 -457 0
448 458 459 -457 0
458 459 -457 0
173 -457 0
-173 457 0
-461 462 0
-463 -181 462 0
461 463 -462 0
181 461 -462 0
177 -462 0
-177 462 0
-464 465 0
-466 -185 465 0
464 466 -465 0
185 464 -465 0
181 -465 0
-181 465 0
-467 468 0
-469 -189 468 0
467 469 -468 0
189 467 -468 0
185 -468 0
-185 468 0
470 -471 0
-193 -472 470 0
193 471 -470 0
471 472 -470 0
189 -470 0
-189 470 0
-473 474 0
-475 -197 474 0
473 475 -474 0
197 473 -474 0
193 -474 0
-193 474 0
-476 477 0
-201 -478 477 0
201 476 -477 0
476 478 -477 0
197 -477 0
-197 477 0
-479 480 0
-473 -481 480 0
-475 -476 -481 480 0
473 475 479 -480 0
475 479 481 -480 0
473 476 479 -480 0
476 479 481 -480 0
473 479 481 -480 0
479 481 -480 0
201 -480 0
-201 480 0
-482 483 0
-209 -484 483 0
209 482 -483 0
482 484 -483 0
205 -483 0
-205 483 0
-485 486 0
-487 -213 486 0
485 487 -486 0
213 485 -486 0
209 -486 0
-209 486 0
488 -489 0
-490 -217 488 0
489 490 -488 0
217 489 -488 0
213 -488 0
-213 488 0
-491 492 0
-493 -221 492 0
491 493 -492 0
221 491 -492 0
217 -492 0
-217 492 0
-494 495 0
-225 -496 495 0
225 494 -495 0
494 496 -495 0
221 -495 0
-221 495 0
-497 498 0
-499 -229 498 0
497 499 -498 0
229 497 -498 0
225 -498 0
-225 498 0
-500 501 0
-491 -502 501 0
-493 -502 -494 501 0
-503 0
491 493 500 -501 0
493 500 502 -501 0
491 493 500 502 -501 0
491 493 494 500 -501 0
493 494 500 502 -501 0
491 493 496 500 -501 0
493 496 500 502 -501 0
491 496 500 502 -501 0
496 500 502 -501 0
491 494 496 500 -501 0
494 496 500 502 -501 0
491 500 502 -501 0
500 502 -501 0
491 494 500 502 -501 0
494 500 502 -501 0
491 493 497 500 -501 0
493 497 500 502 -501 0
491 497 500 502 -501 0
497 500 502 -501 0
491 494 497 500 -501 0
494 497 500 502 -501 0
229 -501 0
-229 501 0
-504 505 0
-506 -237 505 0
504 506 -505 0
237 504 -505 0
233 -505 0
-233 505 0
-507 508 0
-509 -241 508 0
507 509 -508 0
241 507 -508 0
237 -508 0
-237 508 0
-510 511 0
-245 -512 511 0
245 510 -511 0
510 512 -511 0
241 -511 0
-241 511 0
-513 514 0
-504 -515 514 0
-506 -515 -507 514 0
-516 0
504 506 513 -514 0
506 513 515 -514 0
504 506 513 515 -514 0
504 506 507 513 -514 0
506 507 513 515 -514 0
504 506 509 513 -514 0
506 509 513 515 -514 0
504 509 513 515 -514 0
509 513 515 -514 0
504 507 509 513 -514 0
507 509 513 515 -514 0
504 506 510 513 -514 0
506 510 513 515 -514 0
504 510 513 515 -514 0
510 513 515 -514 0
504 507 510 513 -514 0
507 510 513 515 -514 0
504 513 515 -514 0
513 515 -514 0
504 507 513 515 -514 0
507 513 515 -514 0
245 -514 0
-245 514 0
-517 518 0
-253 -519 518 0
253 517 -518 0
517 519 -518 0
249 -518 0
-249 518 0
-520 521 0
-522 -257 521 0
520 522 -521 0
257 520 -521 0
253 -521 0
-253 521 0
523 -524 0
-525 -261 523 0
524 525 -523 0
261 524 -523 0
257 -523 0
-257 523 0
-526 527 0
-265 -528 527 0
265 526 -527 0
526 528 -527 0
261 -527 0
-261 527 0
-529 530 0
-531 -269 530 0
529 531 -530 0
269 529 -530 0
265 -530 0
-265 530 0
-532 533 0
-526 -534 533 0
-529 -528 -534 533 0
526 529 532 -533 0
529 532 534 -533 0
526 528 532 -533 0
528 532 534 -533 0
526 532 534 -533 0
532 534 -533 0
269 -533 0
-269 533 0
-535 536 0
-537 -277 536 0
535 537 -536 0
277 535 -536 0
273 -536 0
-273 536 0
538 -539 0
-281 -540 538 0
281 539 -538 0
539 540 -538 0
277 -538 0
-277 538 0
541 -542 0
-543 -45 541 0
542 543 -541 0
45 542 -541 0
281 -541 0
-281 541 0
-544 545 0
-546 -289 545 0
544 546 -545 0
289 544 -545 0
285 -545 0
-285 545 0
547 -548 0
-549 -293 547 0
548 549 -547 0
293 548 -547 0
289 -547 0
-289 547 0
-550 551 0
-552 -297 551 0
550 552 -551 0
297 550 -551 0
293 -551 0
-293 551 0
553 -554 0
-550 -555 553 0
550 554 -553 0
554 555 -553 0
297 -553 0
-297 553 0
-556 557 0
-305 -558 557 0
305 556 -557 0
556 558 -557 0
301 -557 0
-301 557 0
-559 560 0
-561 -309 560 0
559 561 -560 0
309 559 -560 0
305 -560 0
-305 560 0
562 -563 0
-25 -564 562 0
25 563 -562 0
563 564 -562 0
309 -562 0
-309 562 0
-565 566 0
-317 -567 566 0
317 565 -566 0
565 567 -566 0
313 -566 0
-313 566 0
-568 569 0
-321 -570 569 0
321 568 -569 0
568 570 -569 0
317 -569 0
-317 569 0
-571 572 0
-573 -325 572 0
571 573 -572 0
325 571 -572 0
321 -572 0
-321 572 0
574 -575 0
-149 -576 574 0
149 575 -574 0
575 576 -574 0
325 -574 0
-325 574 0
331 0
-334 0
-337 0
340 0
343 0
-346 0
-349 0
352 0
-355 0
-358 0
-361 0
364 0
367 0
370 0
-373 0
-376 0
379 0
382 0
385 0
389 0
-392 0
-395 0
398 0
401 0
-404 0
577 0
-408 0
-411 0
-414 0
417 0
-420 0
423 0
426 0
-429 0
432 0
435 0
-438 0
-441 0
444 0
-447 0
450 0
-453 0
456 0
459 0
-463 0
-466 0
-469 0
472 0
-475 0
478 0
481 0
484 0
-487 0
-490 0
-493 0
496 0
-499 0
502 0
-506 0
-509 0
512 0
515 0
519 0
-522 0
-525 0
528 0
-531 0
534 0
-537 0
540 0
-543 0
-546 0
-549 0
-552 0
555 0
558 0
-561 0
564 0
567 0
570 0
-573 0
576 0
-329 0
-332 0
-335 0
-338 0
-341 0
-344 0
-347 0
-350 0
-353 0
-356 0
-359 0
-362 0
-365 0
-368 0
-371 0
-374 0
-377 0
-380 0
-383 0
-387 0
-390 0
-393 0
-396 0
-399 0
-402 0
-405 0
-406 0
-409 0
-412 0
-415 0
-418 0
-421 0
-424 0
-427 0
431 0
433 0
-436 0
440 0
-442 0
-445 0
448 0
-451 0
-454 0
458 0
-461 0
-464 0
-467 0
471 0
473 0
-476 0
-479 0
-482 0
-485 0
489 0
-491 0
494 0
497 0
-500 0
-504 0
507 0
-510 0
-513 0
-517 0
-520 0
524 0
526 0
-529 0
-532 0
-535 0
539 0
542 0
-544 0
548 0
550 0
554 0
-556 0
-559 0
563 0
-565 0
-568 0
-571 0
575 0
4 0
12 0
32 0
56 0
80 0
96 0
108 0
112 0
124 0
128 0
-132 0
-156 0
-180 0
-208 0
-236 0
-252 0
-276 0
-288 0
-304 0
-316 0
